WARNING: for repeatability, setting FPU to use double precision
============================[ Problem Statistics ]=============================
|                                                                             |
|  Number of variables:           100                                         |
|  Number of clauses:             449                                         |
|  Parse time:                   0.00 s                                       |
|  Eliminated clauses:           0.00 Mb                                      |
|  Simplification time:          0.00 s                                       |
|                                                                             |
============================[ Search Statistics ]==============================
| Conflicts |          ORIGINAL         |          LEARNT          | Progress |
|           |    Vars  Clauses Literals |    Limit  Clauses Lit/Cl |          |
===============================================================================
|       100 |      99      448     1351 |      164      100      7 |  0.010 % |
|       250 |      99      448     1351 |      180      157      6 |  0.010 % |
===============================================================================
restarts              : 3
conflicts             : 280            (78895 /sec)
decisions             : 358            (0.00 % random) (100873 /sec)
propagations          : 5878           (1656241 /sec)
conflict literals     : 1883           (17.05 % deleted)
Memory used           : 13.00 MB
CPU time              : 0.003549 s

SATISFIABLE
